O  Fe                                   
   1.00000000000000     
    11.9415760039999999    0.0000000000000000    0.0000000000000000
    -5.9707880019999999   10.3417081806999995    0.0000000000000000
     0.0000000000000000    0.0000000000000000   24.9999656676999997
   O    Fe
    64    48
Selective dynamics
Direct
  0.2482879474689293  0.4959312222762277  0.3758849519846436   T   T   T
  0.0731194688908492  0.4133988797642509  0.1877277550398416   T   T   T
  0.1667065676210782  0.3335263040105411  0.2887164741854531   T   T   T
  0.0040264068825522  0.9970685671789852  0.1024851493986674   F   F   F
  0.0818530593288751  0.1581598095844351  0.1903301469454965   T   T   T
  0.0035798171961719  0.2513340675527185  0.3759707503425646   T   T   T
  0.3326838064587905  0.1651346041656702  0.1832739395615749   T   T   T
  0.0005764927040080  0.0009357932485991  0.3709832408026643   T   T   T
  0.1602402869946563  0.0780967633020541  0.2829554078516990   T   T   T
  0.2501382701845856  0.0141160672862810  0.0930311945228368   F   F   F
  0.4216512074221702  0.0816425288473576  0.2840356199504244   T   T   T
  0.4859361890915679  0.2488469732011964  0.0936348329679149   F   F   F
  0.2571710716980320  0.2434645947099838  0.0942445975864246   F   F   F
  0.4208412469020406  0.3412861848844815  0.2840183487067717   T   T   T
  0.3405238609210977  0.4195473512010011  0.1902837485390284   T   T   T
  0.2478878745985846  0.2512488756325937  0.3755411842925776   T   T   T
  0.7484671860395765  0.4966071977540046  0.3760339024869249   T   T   T
  0.5861003409640096  0.4256433914877448  0.1916534917455109   T   T   T
  0.6690216274278012  0.3348657831247085  0.2888714783168930   T   T   T
  0.5032032089133125  0.9950723126270873  0.1027868116237016   F   F   F
  0.5809041440170728  0.1635016457359157  0.1880729480118382   T   T   T
  0.5049634788646660  0.2533905177572109  0.3761881906533933   T   T   T
  0.8335822856529810  0.1731051800996604  0.1821476957378366   T   T   T
  0.5001471557433781  0.0000549193552168  0.3719379275657666   T   T   T
  0.6598515619772186  0.0823931343029806  0.2843381045372756   T   T   T
  0.7492822901080061  0.0134065747831187  0.0925575789571198   F   F   F
  0.9190313695784412  0.0787697139185151  0.2826856514445567   T   T   T
  0.9865848189235891  0.2518008904666189  0.0934398648956503   F   F   F
  0.7558869625324434  0.2425344855921878  0.0955053541713227   F   F   F
  0.9207617199417444  0.3409023125608499  0.2843291602204427   T   T   T
  0.8463309346992119  0.4173789303624912  0.1876503181940560   T   T   T
  0.7490959341300235  0.2537208421407175  0.3770478262245711   T   T   T
  0.2481491091063598  0.9958448107469182  0.3759870398415132   T   T   T
  0.0733587826563188  0.9134135814253316  0.1870200743707364   T   T   T
  0.1669433789659876  0.8337946405040185  0.2887145172611936   T   T   T
  0.0034062319766903  0.4966866773784986  0.1038818208809289   F   F   F
  0.0823713739621445  0.6590258572967113  0.1907296362936000   T   T   T
  0.0035516173407155  0.7513661637652908  0.3758354358865390   T   T   T
  0.3327486752200627  0.6649450867126963  0.1834242586002523   T   T   T
  0.0005371292015549  0.5011762622472695  0.3711542553899245   T   T   T
  0.1601850033746854  0.5783627008730904  0.2831812214952458   T   T   T
  0.2483237786265775  0.5136128373761082  0.0926879849613087   F   F   F
  0.4216935594832097  0.5816646892943016  0.2837789121262341   T   T   T
  0.4857831710605822  0.7487035094574495  0.0937729310449882   F   F   F
  0.2578099071310760  0.7442567789093602  0.0947442622357428   F   F   F
  0.4206988206626013  0.8411788220846356  0.2842483377907315   T   T   T
  0.3413007521266654  0.9201586108549852  0.1904180504344329   T   T   T
  0.2478627639361997  0.7513173190190988  0.3756528558608222   T   T   T
  0.7485605189138932  0.9964974936225123  0.3761197440504873   T   T   T
  0.5860857695731774  0.9249542516540955  0.1920634557180436   T   T   T
  0.6691964554028501  0.8348412219389942  0.2887470281147558   T   T   T
  0.5019100438553892  0.4948453109979596  0.1027451869709211   F   F   F
  0.5814352945184289  0.6631370300622761  0.1877183195907647   T   T   T
  0.5050171675483117  0.7529458034220172  0.3761043792669146   T   T   T
  0.8350046607655141  0.6727507956523425  0.1808450664635439   T   T   T
  0.5002724910328639  0.5002179009923512  0.3716564055517463   T   T   T
  0.6601571504976652  0.5825906693218040  0.2839820186232525   T   T   T
  0.7470016196728508  0.5134712115734672  0.0900415174722582   F   F   F
  0.9188938559148390  0.5789976260443812  0.2826625760065923   T   T   T
  0.9869105118447052  0.7536670147226090  0.0903199003709929   F   F   F
  0.7561047912938648  0.7428305043778494  0.0949065142576373   F   F   F
  0.9208322288117563  0.8406353168343224  0.2838978518531622   T   T   T
  0.8470379178128320  0.9170158164409005  0.1871961772665677   T   T   T
  0.7492881160307546  0.7537440237884238  0.3768329157919701   T   T   T
  0.0026199153176802  0.9998009274290323  0.2376395712098432   T   T   T
  0.4190363056623738  0.3362950778032285  0.1411202431852274   F   F   F
  0.3321812059077346  0.4158465426882069  0.3366282640552292   T   T   T
  0.3341198960073939  0.1667937259466328  0.0517479683420561   F   F   F
  0.1633268417426095  0.0817215224841590  0.1408053816985699   F   F   F
  0.0845720321589264  0.1696311424728877  0.3366141338820056   T   T   T
  0.4163486582339431  0.0807471529561568  0.1415761020119817   F   F   F
  0.0845037278388058  0.4155988932722439  0.3372241423340809   T   T   T
  0.3348909031352290  0.1684322685589821  0.2615569620320012   T   T   T
  0.1666905074814551  0.3337052239063496  0.0839363139728988   F   F   F
  0.3341301621014720  0.1667939129688400  0.3876867137881405   T   T   T
  0.1639024693607891  0.3310203400986435  0.2137347089172413   T   T   T
  0.5003126703011986  0.0028254409847594  0.2373082112398571   T   T   T
  0.9182998887039489  0.3365250457199309  0.1416735814940608   F   F   F
  0.8319876289431837  0.4166991292776356  0.3367191695438869   T   T   T
  0.8338781156184538  0.1676305461165981  0.0523301443496464   F   F   F
  0.6626226272738194  0.0809820483247350  0.1412592454023667   F   F   F
  0.5857362341316842  0.1696228773653322  0.3379405387883912   T   T   T
  0.9167678056134889  0.0815467384974156  0.1411885944478541   F   F   F
  0.5850144743892878  0.4168693700125055  0.3363607720817380   T   T   T
  0.8335582079040676  0.1680821997272604  0.2617076301339291   T   T   T
  0.6661157413193237  0.3332696372878061  0.0835378717704387   F   F   F
  0.8330856660468817  0.1668508259206750  0.3885454256495711   T   T   T
  0.6670847890857137  0.3328662556259335  0.2139744761155664   T   T   T
  0.0023534305405591  0.5000647890263699  0.2377390848433139   T   T   T
  0.4191563419012994  0.8366021409974778  0.1411787830377165   F   F   F
  0.3323921431680732  0.9160037443086005  0.3366387729283282   T   T   T
  0.3341686589257904  0.6671001951278583  0.0519823156919301   F   F   F
  0.1635536552289807  0.5823298886455603  0.1413531869785700   F   F   F
  0.0847743605886445  0.6696848817823546  0.3366044334977423   T   T   T
  0.4158849867828494  0.5805234893141673  0.1415997259330624   F   F   F
  0.0847351917474536  0.9155089888783767  0.3371604175515021   T   T   T
  0.3347391148362887  0.6684777776177596  0.2616539768565726   T   T   T
  0.1670909396557221  0.8341125460018617  0.0831856238102660   F   F   F
  0.3341644892716030  0.6668396332904474  0.3876822056096009   T   T   T
  0.1644533042311817  0.8319858521845983  0.2137178366069763   T   T   T
  0.4996305789449228  0.5028337143965889  0.2370955117966894   T   T   T
  0.9191420971635864  0.8373311384708586  0.1404190573606883   F   F   F
  0.8320062619395501  0.9167489407070701  0.3365822681593049   T   T   T
  0.8327870802567929  0.6689214587216767  0.0505537213587459   F   F   F
  0.6627108596022282  0.5805932346969129  0.1402500441188010   F   F   F
  0.5861308746214273  0.6696854639702261  0.3376170920929005   T   T   T
  0.9178628851434496  0.5816763962537905  0.1414803286416273   F   F   F
  0.5848909761264747  0.9166540238464205  0.3365794362409568   T   T   T
  0.8336024612856500  0.6680368487379488  0.2609857745467263   T   T   T
  0.6659158429509660  0.8333472897866585  0.0845821073432163   F   F   F
  0.8331509892299478  0.6668807622419934  0.3885173959466707   T   T   T
  0.6677768546537105  0.8324406647389886  0.2138078466433773   T   T   T
 
  0.00000000E+00  0.00000000E+00  0.00000000E+00
  0.00000000E+00  0.00000000E+00  0.00000000E+00
  0.00000000E+00  0.00000000E+00  0.00000000E+00
  0.00000000E+00  0.00000000E+00  0.00000000E+00
  0.00000000E+00  0.00000000E+00  0.00000000E+00
  0.00000000E+00  0.00000000E+00  0.00000000E+00
  0.00000000E+00  0.00000000E+00  0.00000000E+00
  0.00000000E+00  0.00000000E+00  0.00000000E+00
  0.00000000E+00  0.00000000E+00  0.00000000E+00
  0.00000000E+00  0.00000000E+00  0.00000000E+00
  0.00000000E+00  0.00000000E+00  0.00000000E+00
  0.00000000E+00  0.00000000E+00  0.00000000E+00
  0.00000000E+00  0.00000000E+00  0.00000000E+00
  0.00000000E+00  0.00000000E+00  0.00000000E+00
  0.00000000E+00  0.00000000E+00  0.00000000E+00
  0.00000000E+00  0.00000000E+00  0.00000000E+00
  0.00000000E+00  0.00000000E+00  0.00000000E+00
  0.00000000E+00  0.00000000E+00  0.00000000E+00
  0.00000000E+00  0.00000000E+00  0.00000000E+00
  0.00000000E+00  0.00000000E+00  0.00000000E+00
  0.00000000E+00  0.00000000E+00  0.00000000E+00
  0.00000000E+00  0.00000000E+00  0.00000000E+00
  0.00000000E+00  0.00000000E+00  0.00000000E+00
  0.00000000E+00  0.00000000E+00  0.00000000E+00
  0.00000000E+00  0.00000000E+00  0.00000000E+00
  0.00000000E+00  0.00000000E+00  0.00000000E+00
  0.00000000E+00  0.00000000E+00  0.00000000E+00
  0.00000000E+00  0.00000000E+00  0.00000000E+00
  0.00000000E+00  0.00000000E+00  0.00000000E+00
  0.00000000E+00  0.00000000E+00  0.00000000E+00
  0.00000000E+00  0.00000000E+00  0.00000000E+00
  0.00000000E+00  0.00000000E+00  0.00000000E+00
  0.00000000E+00  0.00000000E+00  0.00000000E+00
  0.00000000E+00  0.00000000E+00  0.00000000E+00
  0.00000000E+00  0.00000000E+00  0.00000000E+00
  0.00000000E+00  0.00000000E+00  0.00000000E+00
  0.00000000E+00  0.00000000E+00  0.00000000E+00
  0.00000000E+00  0.00000000E+00  0.00000000E+00
  0.00000000E+00  0.00000000E+00  0.00000000E+00
  0.00000000E+00  0.00000000E+00  0.00000000E+00
  0.00000000E+00  0.00000000E+00  0.00000000E+00
  0.00000000E+00  0.00000000E+00  0.00000000E+00
  0.00000000E+00  0.00000000E+00  0.00000000E+00
  0.00000000E+00  0.00000000E+00  0.00000000E+00
  0.00000000E+00  0.00000000E+00  0.00000000E+00
  0.00000000E+00  0.00000000E+00  0.00000000E+00
  0.00000000E+00  0.00000000E+00  0.00000000E+00
  0.00000000E+00  0.00000000E+00  0.00000000E+00
  0.00000000E+00  0.00000000E+00  0.00000000E+00
  0.00000000E+00  0.00000000E+00  0.00000000E+00
  0.00000000E+00  0.00000000E+00  0.00000000E+00
  0.00000000E+00  0.00000000E+00  0.00000000E+00
  0.00000000E+00  0.00000000E+00  0.00000000E+00
  0.00000000E+00  0.00000000E+00  0.00000000E+00
  0.00000000E+00  0.00000000E+00  0.00000000E+00
  0.00000000E+00  0.00000000E+00  0.00000000E+00
  0.00000000E+00  0.00000000E+00  0.00000000E+00
  0.00000000E+00  0.00000000E+00  0.00000000E+00
  0.00000000E+00  0.00000000E+00  0.00000000E+00
  0.00000000E+00  0.00000000E+00  0.00000000E+00
  0.00000000E+00  0.00000000E+00  0.00000000E+00
  0.00000000E+00  0.00000000E+00  0.00000000E+00
  0.00000000E+00  0.00000000E+00  0.00000000E+00
  0.00000000E+00  0.00000000E+00  0.00000000E+00
  0.00000000E+00  0.00000000E+00  0.00000000E+00
  0.00000000E+00  0.00000000E+00  0.00000000E+00
  0.00000000E+00  0.00000000E+00  0.00000000E+00
  0.00000000E+00  0.00000000E+00  0.00000000E+00
  0.00000000E+00  0.00000000E+00  0.00000000E+00
  0.00000000E+00  0.00000000E+00  0.00000000E+00
  0.00000000E+00  0.00000000E+00  0.00000000E+00
  0.00000000E+00  0.00000000E+00  0.00000000E+00
  0.00000000E+00  0.00000000E+00  0.00000000E+00
  0.00000000E+00  0.00000000E+00  0.00000000E+00
  0.00000000E+00  0.00000000E+00  0.00000000E+00
  0.00000000E+00  0.00000000E+00  0.00000000E+00
  0.00000000E+00  0.00000000E+00  0.00000000E+00
  0.00000000E+00  0.00000000E+00  0.00000000E+00
  0.00000000E+00  0.00000000E+00  0.00000000E+00
  0.00000000E+00  0.00000000E+00  0.00000000E+00
  0.00000000E+00  0.00000000E+00  0.00000000E+00
  0.00000000E+00  0.00000000E+00  0.00000000E+00
  0.00000000E+00  0.00000000E+00  0.00000000E+00
  0.00000000E+00  0.00000000E+00  0.00000000E+00
  0.00000000E+00  0.00000000E+00  0.00000000E+00
  0.00000000E+00  0.00000000E+00  0.00000000E+00
  0.00000000E+00  0.00000000E+00  0.00000000E+00
  0.00000000E+00  0.00000000E+00  0.00000000E+00
  0.00000000E+00  0.00000000E+00  0.00000000E+00
  0.00000000E+00  0.00000000E+00  0.00000000E+00
  0.00000000E+00  0.00000000E+00  0.00000000E+00
  0.00000000E+00  0.00000000E+00  0.00000000E+00
  0.00000000E+00  0.00000000E+00  0.00000000E+00
  0.00000000E+00  0.00000000E+00  0.00000000E+00
  0.00000000E+00  0.00000000E+00  0.00000000E+00
  0.00000000E+00  0.00000000E+00  0.00000000E+00
  0.00000000E+00  0.00000000E+00  0.00000000E+00
  0.00000000E+00  0.00000000E+00  0.00000000E+00
  0.00000000E+00  0.00000000E+00  0.00000000E+00
  0.00000000E+00  0.00000000E+00  0.00000000E+00
  0.00000000E+00  0.00000000E+00  0.00000000E+00
  0.00000000E+00  0.00000000E+00  0.00000000E+00
  0.00000000E+00  0.00000000E+00  0.00000000E+00
  0.00000000E+00  0.00000000E+00  0.00000000E+00
  0.00000000E+00  0.00000000E+00  0.00000000E+00
  0.00000000E+00  0.00000000E+00  0.00000000E+00
  0.00000000E+00  0.00000000E+00  0.00000000E+00
  0.00000000E+00  0.00000000E+00  0.00000000E+00
  0.00000000E+00  0.00000000E+00  0.00000000E+00
  0.00000000E+00  0.00000000E+00  0.00000000E+00
  0.00000000E+00  0.00000000E+00  0.00000000E+00
  0.00000000E+00  0.00000000E+00  0.00000000E+00
